%nproc=8
%mem=16GB
# b3lyp/6-31G(d) force scf=(tight,nosym) 
scrf=(smd,solvent=water)

1 2 3 4
runpoint 1
runisomer  454

0 1
C -0.2374216 0.5914803 -0.0730011
C -0.2058551 -0.8700766 -0.1164797
C -0.3522918 -1.6567809 1.1961908
H -0.6643945 -1.1224107 2.1945246
H 0.5400040 -2.3181447 1.3099525
H -1.1131793 -2.3944243 1.1669894
C -0.4160506 -1.6983141 -1.3512287
H -1.2529961 -2.5589399 -1.3727951
H 0.5435879 -2.3135513 -1.3788525
H -0.3124447 -1.1111257 -2.2734200
C -0.0886115 1.4281861 -1.3332066
H 1.0271331 1.5785716 -1.5786031
H -0.5375480 2.5321334 -1.1889109
H -0.6415373 1.0371292 -2.2358642
C -0.2440448 1.4064555 1.1899499
H 0.9630240 1.4512545 1.4593052
H -0.8406630 1.0245349 2.0720254
H -0.7321563 2.5086023 0.9290151
Br 3.3587133 0.0857164 0.0288187
Br -2.9818817 0.0571758 0.0565854


